BAYES
5
2 2 2 2 2
5
2 3 0
4 0 3 4 1
5 4 1 0 3 2
1 3
3 3 0 4

4
0.67 0.33 0.00 1.00

16
0.87 0.13 0.73 0.27 0.07 0.93 0.20 0.80 0.33 0.67 0.40 0.60 0.93 0.07 0.87 0.13

32
0.13 0.87 0.60 0.40 0.07 0.93 1.00 0.00 0.20 0.80 1.00 0.00 0.27 0.73 0.47 0.53 0.07 0.93 0.80 0.20 0.20 0.80 0.80 0.20 0.53 0.47 0.00 1.00 0.13 0.87 0.53 0.47

2
0.33 0.67

8
0.67 0.33 0.40 0.60 0.47 0.53 1.00 0.00

